7226.0
1 1 1 1 1 1 1 1 1 1 
18 31 32 33 46 60 61 64 70 73 
3 21 23 50 51 62 
12 14 36 40 56 77 81 82 86 87 89 
6 17 34 42 43 44 
2 10 22 27 49 68 69 71 72 
0 25 26 29 45 47 63 79 
1 13 19 20 24 37 38 48 52 53 65 66 67 78 
4 7 15 16 41 55 74 75 80 83 84 88 
8 9 28 30 57 58 59 
5 11 35 39 54 76 85 
